
  32    4
  10   10   10   10

   0   0   0   0   0  15 2 18 19 20 21 22 23 24 25 26 27 28 29 30 31 
  10  10  10  10  10   2 17 3 
   8  10  10  10  10   2 16 4 
   6  10  10  10  10   2 15 5 
   5  10  10  10  10   1 6 
   3  10  10  10  10   1 7 
   1  10  10  10  10   2 14 8 
   3  10  10  10  10   1 9 
   9  10  10  10  10   1 10 
   3  10  10  10  10   1 11 
   7  10  10  10  10   1 12 
   4  10  10  10  10   1 13 
   8  10  10  10  10   1 32
   1  10  10  10  10   1 32
  10  10  10  10  10   1 32
   5  10  10  10  10   1 32
   5  10  10  10  10   1 32
   1  10  10  10  10   1 32
   5  10  10  10  10   1 32
   1  10  10  10  10   1 32
   9  10  10  10  10   1 32
   6  10  10  10  10   1 32
   5  10  10  10  10   1 32
  10  10  10  10  10   1 32
   6  10  10  10  10   1 32
  10  10  10  10  10   1 32
   8  10  10  10  10   1 32
   8  10  10  10  10   1 32
   3  10  10  10  10   1 32
   4  10  10  10  10   1 32
   5  10  10  10  10   1 32
   0   0   0   0   0   0 
